NAME: I23214-n100-k7
COMMENT : (Fake et al, No of trucks: 7, Optimal value: )
TYPE : CVRP
DIMENSION : 100
EDGE_WEIGHT_TYPE : EUC_2D
CAPACITY : 24
NODE_COORD_SECTION
1 173 965
2 787 434
3 682 180
4 300 51
5 632 532
6 976 491
7 730 991
8 236 363
9 568 624
10 104 373
11 443 492
12 983 492
13 676 236
14 247 378
15 605 233
16 10 138
17 964 105
18 857 251
19 644 3
20 845 818
21 990 52
22 553 739
23 726 340
24 812 894
25 825 325
26 931 604
27 648 564
28 865 142
29 648 692
30 209 638
31 825 809
32 364 415
33 583 988
34 326 851
35 969 832
36 776 204
37 346 238
38 959 106
39 807 515
40 25 562
41 464 495
42 669 406
43 803 560
44 58 852
45 899 928
46 184 935
47 419 167
48 889 941
49 119 344
50 841 582
51 1 481
52 699 668
53 474 443
54 709 790
55 772 42
56 540 413
57 768 837
58 490 728
59 471 725
60 207 430
61 402 713
62 18 278
63 271 347
64 451 225
65 769 794
66 317 818
67 65 984
68 667 111
69 409 151
70 272 367
71 286 849
72 56 603
73 366 375
74 875 67
75 189 79
76 839 628
77 356 938
78 296 41
79 879 845
80 430 700
81 485 591
82 235 436
83 345 811
84 74 495
85 401 115
86 101 307
87 753 574
88 570 580
89 464 142
90 184 604
91 573 636
92 402 384
93 133 683
94 935 821
95 558 223
96 803 270
97 764 948
98 911 795
99 900 11
100 901 423
DEMAND_SECTION
1 0
2 1
3 1
4 2
5 1
6 2
7 1
8 1
9 1
10 1
11 2
12 1
13 2
14 1
15 2
16 1
17 1
18 1
19 2
20 2
21 1
22 1
23 1
24 1
25 2
26 2
27 1
28 2
29 2
30 1
31 2
32 2
33 2
34 2
35 2
36 1
37 1
38 2
39 2
40 1
41 2
42 1
43 1
44 2
45 1
46 1
47 1
48 2
49 1
50 2
51 2
52 2
53 2
54 2
55 2
56 2
57 1
58 1
59 1
60 2
61 2
62 2
63 2
64 1
65 2
66 1
67 1
68 2
69 2
70 2
71 1
72 2
73 2
74 1
75 2
76 1
77 1
78 1
79 1
80 1
81 1
82 2
83 1
84 1
85 2
86 1
87 2
88 2
89 1
90 1
91 2
92 1
93 2
94 1
95 2
96 1
97 2
98 1
99 2
100 2
DEPOT_SECTION
 1
 -1
 EOF 